Linux optc-01-15 4.15.0-58-generic #64-Ubuntu SMP Tue Aug 6 11:12:41 UTC 2019 x86_64 x86_64 x86_64 GNU/Linux

top - 21:08:28 up 1 day, 11:09,  0 users,  load average: 0,20, 0,65, 0,86
Tasks: 291 gesamt,   1 laufend, 149 schlafend,   0 gestoppt,   0 Zombie
%CPU(s):  6,1 be,  0,2 sy,  0,0 ni, 93,6 un,  0,0 wa,  0,0 hi,  0,0 si,  0,0 st
KiB Spch : 97514992 gesamt, 94641672 frei,   648732 belegt,  2224592 Puff/Cache
KiB Swap:  8388604 gesamt,  8388604 frei,        0 belegt. 96124480 verfü Spch 

  PID USER      PR  NI    VIRT    RES    SHR S  %CPU %MEM     ZEIT+ BEFEHL
 6499 bzfhende  20   0   52664   4088   3348 R   4,2  0,0   0:00.01 top
    1 root      20   0  233856   9228   6524 S   0,0  0,0   0:12.17 systemd
    2 root      20   0       0      0      0 S   0,0  0,0   0:00.12 kthreadd
    3 root      20   0       0      0      0 I   0,0  0,0   0:00.96 kworker/0:0
    4 root       0 -20       0      0      0 I   0,0  0,0   0:00.00 kworker/0:+
    6 root      20   0       0      0      0 I   0,0  0,0   0:00.00 kworker/u3+
    7 root       0 -20       0      0      0 I   0,0  0,0   0:00.00 mm_percpu_+
    8 root      20   0       0      0      0 S   0,0  0,0   0:00.00 ksoftirqd/0

hard time limit: 04:10:00
hard mem limit: 55100

SLURM jobID: 2182565

@01 /nfs/optimi/kombadon/IP/miplib3/mod010.mps.gz ===========
-----------------------------
Do 22. Aug 21:08:28 CEST 2019
-----------------------------
@03 1566500908
@05 7200
SCIP version 6.0.0 [precision: 8 byte] [memory: block] [mode: optimized] [LP solver: CPLEX 12.8.0.0] [GitHash: 41ab6e0014]
Copyright (C) 2002-2018 Konrad-Zuse-Zentrum fuer Informationstechnik Berlin (ZIB)

External codes: 
  Readline 7.0         GNU library for command line editing (gnu.org/s/readline)
  CPLEX 12.8.0.0       Linear Programming Solver developed by IBM (www.cplex.com)
  CppAD 20180000.0     Algorithmic Differentiation of C++ algorithms developed by B. Bell (www.coin-or.org/CppAD)
  ZLIB 1.2.11          General purpose compression library by J. Gailly and M. Adler (zlib.net)
  GMP 6.1.2            GNU Multiple Precision Arithmetic Library developed by T. Granlund (gmplib.org)
  bliss 0.73p          Computing Graph Automorphism Groups by T. Junttila and P. Kaski (http://www.tcs.hut.fi/Software/bliss/)

user parameter file <scip.set> not found - using default parameters

SCIP> 
SCIP> set load /home/optimi/bzfhende/opti/scip-opti/check/../settings/enable_treeeprofile.set
loaded parameter file </home/optimi/bzfhende/opti/scip-opti/check/../settings/enable_treeprofile.set>
SCIP> set misc referencevalue 6.5480000000e+03
misc/referencevalue = 6548
SCIP> set limits time 7200
limits/time = 7200
SCIP> set limits nodes 2100000000
limits/nodes = 2100000000
SCIP> set limits memory 50000
limits/memory = 50000
SCIP> set lp advanced threads 1
lp/threads = 1
SCIP> set timing clocktype 1
timing/clocktype = 1
SCIP> set display freq 10000
display/freq = 10000
SCIP> set memory savefac 1.0
memory/savefac = 1
SCIP> set save /home/optimi/bzfhende/opti/scip-opti/check/treesize.estimation.jouurnal.3/bzfhende.MMMc.101_mod010.scip.M640.enable_treeprofile.set
saved parameter file </home/optimi/bzfhende/opti/scip-opti/check/treesize.estimation.journal.3/bzfhende.MMMc.101_mod010.scip.M640.enable_treeprofile.set>
SCIP> read /nfs/optimi/kombadon/IP/miplib3/mod010.mps.gz

read problem </nfs/optimi/kombadon/IP/miplib3/mod010.mps.gz>
============

original problem has 2655 variables (2655 bin, 0 int, 0 impl, 0 cont) and 146 constraints
SCIP> display parameters

number of parameters = 2448
non-default parameter settings:
display/freq = 10000
limits/time = 7200
limits/nodes = 2100000000
limits/memory = 50000
lp/threads = 1
memory/savefac = 1
misc/referencevalue = 6548
presolving/maxrestarts = 0
estimates/profile/enabled = TRUE
estimates/profile/maxdepthfactor = 10
estimates/profile/freq = 0

SCIP> optimize

Activating tree profile data collection
presolving:
(round 1, exhaustive) 0 del vars, 0 del conss, 0 add conss, 0 chg bounds, 0 chg sides, 0 chg coeffs, 145 upgd conss, 0 impls, 202 clqs
(round 2, fast)       0 del vars, 0 del conss, 0 add conss, 0 chg bounds, 0 chg sides, 44 chg coeffs, 145 upgd conss, 0 impls, 202 clqs
(round 3, exhaustive) 83 del vars, 2 del conss, 0 add conss, 0 chg bounds, 0 chg sides, 44 chg coeffs, 145 upgd conss, 0 impls, 198 clqs
   (0.0s) sparsify aborted: 1790/10760 (16.6%) nonzeros canceled - in total 1790 canceled nonzeros, 1790 changed coefficients, 0 added nonzeros
(round 4, exhaustive) 83 del vars, 2 del conss, 0 add conss, 0 chg bounds, 0 chg sides, 1834 chg coeffs, 145 upgd conss, 0 impls, 198 clqs
(round 5, medium)     85 del vars, 2 del conss, 0 add conss, 0 chg bounds, 2 chg sides, 1836 chg coeffs, 145 upgd conss, 0 impls, 198 clqs
(round 6, exhaustive) 85 del vars, 3 del conss, 0 add conss, 0 chg bounds, 2 chg sides, 1836 chg coeffs, 145 upgd conss, 0 impls, 198 clqs
(round 7, medium)     86 del vars, 3 del conss, 0 add conss, 0 chg bounds, 3 chg sides, 1837 chg coeffs, 145 upgd conss, 0 impls, 198 clqs
(round 8, exhaustive) 91 del vars, 3 del conss, 0 add conss, 0 chg bounds, 3 chg sides, 1837 chg coeffs, 145 upgd conss, 0 impls, 198 clqs
   (0.1s) probing: 51/2564 (2.0%) - 0 fixings, 0 aggregations, 0 implications, 0 bound changes
   (0.1s) probing aborted: 50/50 successive totally useless probings
presolving (9 rounds: 9 fast, 8 medium, 6 exhaustive):
 91 deleted vars, 3 deleted constraints, 0 added constraints, 0 tightened bounds, 0 added holes, 3 changed sides, 1837 changed coefficients
 0 implications, 198 cliques
presolved problem has 2564 variables (2564 bin, 0 int, 0 impl, 0 cont) and 143 constraints
      1 constraints of type <knapsack>
    141 constraints of type <setppc>
      1 constraints of type <linear>
transformed objective value is always integral (scale: 1)
Presolving Time: 0.08

 time | node  | left  |LP iter|LP it/n| mem |mdpt |frac |vars |cons |cols |rows |cuts |confs|strbr|  dualbound   | primalbound  |  gap   
  0.1s|     1 |     0 |   689 |     - |  32M|   0 |  39 |2564 | 364 |2564 | 143 |   0 | 221 |   0 | 6.532083e+03 |      --      |    Inf 
F 0.1s|     1 |     0 |  1077 |     - |  33M|   0 |   0 |2564 | 364 |2564 | 143 |   0 | 221 |   0 | 6.532083e+03 | 6.877000e+03 |   5.28%
  0.1s|     1 |     0 |  1081 |     - |  33M|   0 |  30 |2564 | 364 |2564 | 146 |   3 | 221 |   0 | 6.533000e+03 | 6.877000e+03 |   5.27%
  0.1s|     1 |     0 |  1081 |     - |  33M|   0 |  30 |2564 | 364 |2564 | 146 |   3 | 221 |   0 | 6.533000e+03 | 6.877000e+03 |   5.27%
  0.1s|     1 |     0 |  1086 |     - |  33M|   0 |  30 |2564 | 364 |2564 | 149 |   6 | 221 |   0 | 6.533000e+03 | 6.877000e+03 |   5.27%
  0.2s|     1 |     0 |  1097 |     - |  33M|   0 |  50 |2564 | 364 |2564 | 151 |   8 | 221 |   0 | 6.534125e+03 | 6.877000e+03 |   5.25%
  0.2s|     1 |     0 |  1097 |     - |  33M|   0 |  50 |2564 | 364 |2564 | 151 |   8 | 221 |   0 | 6.534125e+03 | 6.877000e+03 |   5.25%
  0.2s|     1 |     0 |  1102 |     - |  33M|   0 |  59 |2564 | 364 |2564 | 152 |   9 | 221 |   0 | 6.534155e+03 | 6.877000e+03 |   5.25%
  0.2s|     1 |     0 |  1115 |     - |  33M|   0 |  34 |2564 | 364 |2564 | 155 |  12 | 221 |   0 | 6.535500e+03 | 6.877000e+03 |   5.23%
  0.2s|     1 |     0 |  1125 |     - |  33M|   0 |  52 |2564 | 364 |2564 | 157 |  14 | 221 |   0 | 6.536250e+03 | 6.877000e+03 |   5.21%
  0.2s|     1 |     0 |  1126 |     - |  33M|   0 |  52 |2564 | 364 |2564 | 158 |  15 | 221 |   0 | 6.536250e+03 | 6.877000e+03 |   5.21%
  0.2s|     1 |     0 |  1128 |     - |  33M|   0 |  54 |2564 | 364 |2564 | 159 |  16 | 221 |   0 | 6.536250e+03 | 6.877000e+03 |   5.21%
  0.2s|     1 |     0 |  1130 |     - |  33M|   0 |  55 |2564 | 364 |2564 | 160 |  17 | 221 |   0 | 6.536300e+03 | 6.877000e+03 |   5.21%
  0.2s|     1 |     0 |  1133 |     - |  33M|   0 |  57 |2564 | 364 |2564 | 162 |  19 | 221 |   0 | 6.536375e+03 | 6.877000e+03 |   5.21%
  0.2s|     1 |     0 |  1145 |     - |  33M|   0 |  54 |2564 | 364 |2564 | 164 |  21 | 221 |   0 | 6.537000e+03 | 6.877000e+03 |   5.20%
 time | node  | left  |LP iter|LP it/n| mem |mdpt |frac |vars |cons |cols |rows |cuts |confs|strbr|  dualbound   | primalbound  |  gap   
  0.2s|     1 |     0 |  1158 |     - |  34M|   0 |  56 |2564 | 364 |2564 | 166 |  23 | 221 |   0 | 6.537500e+03 | 6.877000e+03 |   5.19%
  0.2s|     1 |     0 |  1158 |     - |  34M|   0 |  56 |2564 | 364 |2564 | 166 |  23 | 221 |   0 | 6.537500e+03 | 6.877000e+03 |   5.19%
  0.2s|     1 |     0 |  1167 |     - |  34M|   0 |  54 |2564 | 364 |2564 | 166 |  25 | 221 |   0 | 6.538000e+03 | 6.877000e+03 |   5.19%
  0.2s|     1 |     0 |  1173 |     - |  34M|   0 |  59 |2564 | 364 |2564 | 168 |  27 | 221 |   0 | 6.538000e+03 | 6.877000e+03 |   5.19%
  0.3s|     1 |     0 |  1177 |     - |  34M|   0 |  50 |2564 | 364 |2564 | 170 |  29 | 221 |   0 | 6.538250e+03 | 6.877000e+03 |   5.18%
  0.3s|     1 |     0 |  1181 |     - |  34M|   0 |  36 |2564 | 364 |2564 | 171 |  30 | 221 |   0 | 6.538500e+03 | 6.877000e+03 |   5.18%
u 0.3s|     1 |     0 |  1242 |     - |  34M|   0 |   - |2564 | 364 |2564 | 171 |   0 | 221 |   0 | 6.538500e+03 | 6.548000e+03 |   0.15%
  0.3s|     1 |     0 |  1242 |     - |  34M|   0 |  36 |2564 | 364 |2564 | 171 |  30 | 221 |   0 | 6.538500e+03 | 6.548000e+03 |   0.15%
  0.3s|     1 |     0 |  1242 |     - |  34M|   0 |  36 |2564 | 365 |2564 | 171 |  30 | 222 |   0 | 6.538500e+03 | 6.548000e+03 |   0.15%
  0.3s|     1 |     0 |  1242 |     - |  34M|   0 |  36 |2564 | 353 |2564 | 171 |  30 | 222 |   0 | 6.538500e+03 | 6.548000e+03 |   0.15%
  0.4s|     1 |     0 |  1259 |     - |  34M|   0 |  20 |2564 | 348 |2564 | 171 |  30 | 227 |  36 | 6.540500e+03 | 6.548000e+03 |   0.11%
  0.4s|     1 |     0 |  1259 |     - |  34M|   0 |  20 |2564 | 348 |2564 | 171 |  30 | 227 |  36 | 6.540500e+03 | 6.548000e+03 |   0.11%
  0.4s|     1 |     0 |  1260 |     - |  34M|   0 |  22 |2564 | 277 |2564 | 172 |  31 | 227 |  36 | 6.540500e+03 | 6.548000e+03 |   0.11%
SCIP nodes: 1 Estimation: -1
  0.4s|     1 |     0 |  1267 |     - |  34M|   0 |   - |2564 | 269 |2564 | 172 |  31 | 228 |  38 | 6.548000e+03 | 6.548000e+03 |   0.00%
Report 1
Time Elapsed: 0.37
  Tree Data        : 1 nodes (1 visited, 0 inner, 1 leaves, 0 open), progress: 1.0000
Tree Estimation    :       estim       value       trend  resolution      smooth
  wbe              :          -1           -           -           -           -
  tree profile     :          -1           -           -           -           -
  gap              :           1     1.00000     1.00000           1           1
  progress         :           1     1.00000     1.00000           1           1
  leaf-frequency   :           1     0.50000     1.00000           1           1
  ssg              :           1     0.00000    -1.00000           1           1
  open-nodes       :           1     0.00000     0.00000           1           1
End of Report 1


SCIP Status        : problem is solved [optimal solution found]
Solving Time (sec) : 0.37
Solving Nodes      : 1
Primal Bound       : +6.54800000000000e+03 (2 solutions)
Dual Bound         : +6.54800000000000e+03
Gap                : 0.00 %

SCIP> display statistics

SCIP Status        : problem is solved [optimal solution found]
Total Time         :       0.37
  solving          :       0.37
  presolving       :       0.08 (included in solving)
  reading          :       0.00
  copying          :       0.00 (2 #copies) (minimal 0.00, maximal 0.00, average 0.00)
Original Problem   :
  Problem name     : MOD010
  Variables        : 2655 (2655 binary, 0 integer, 0 implicit integer, 0 continuous)
  Constraints      : 146 initial, 146 maximal
  Objective        : minimize, 2655 non-zeros (abs.min = 12, abs.max = 266)
Presolved Problem  :
  Problem name     : t_MOD010
  Variables        : 2564 (2564 binary, 0 integer, 0 implicit integer, 0 continuous)
  Constraints      : 143 initial, 365 maximal
  Objective        : minimize, 2557 non-zeros (abs.min = 12, abs.max = 266)
Presolvers         :   ExecTime  SetupTime  Calls  FixedVars   AggrVars   ChgTypes  ChgBounds   AddHoles    DelCons    AddCons   ChgSides   ChgCoefs
  boundshift       :       0.00       0.00      0          0          0          0          0          0          0          0          0          0
  convertinttobin  :       0.00       0.00      0          0          0          0          0          0          0          0          0          0
  domcol           :       0.01       0.00      3          5          0          0          0          0          0          0          0          0
  dualagg          :       0.00       0.00      0          0          0          0          0          0          0          0          0          0
  dualcomp         :       0.00       0.00      0          0          0          0          0          0          0          0          0          0
  dualinfer        :       0.00       0.00      0          0          0          0          0          0          0          0          0          0
  gateextraction   :       0.00       0.00      0          0          0          0          0          0          0          0          0          0
  implics          :       0.00       0.00      8          0          0          0          0          0          0          0          0          0
  inttobinary      :       0.00       0.00      0          0          0          0          0          0          0          0          0          0
  qpkktref         :       0.00       0.00      0          0          0          0          0          0          0          0          0          0
  redvub           :       0.00       0.00      0          0          0          0          0          0          0          0          0          0
  sparsify         :       0.05       0.00      2          0          0          0          0          0          0          0          0       1790
  stuffing         :       0.00       0.00      0          0          0          0          0          0          0          0          0          0
  symbreak         :       0.00       0.00      0          0          0          0          0          0          0          0          0          0
  symmetry         :       0.00       0.00      0          0          0          0          0          0          0          0          0          0
  trivial          :       0.00       0.00      9          0          0          0          0          0          0          0          0          0
  tworowbnd        :       0.00       0.00      0          0          0          0          0          0          0          0          0          0
  dualfix          :       0.01       0.00      9          0          0          0          0          0          0          0          0          0
  genvbounds       :       0.00       0.00      0          0          0          0          0          0          0          0          0          0
  orbitalfixing    :       0.00       0.00      0          0          0          0          0          0          0          0          0          0
  probing          :       0.01       0.00      1          0          0          0          0          0          0          0          0          0
  pseudoobj        :       0.00       0.00      0          0          0          0          0          0          0          0          0          0
  vbounds          :       0.00       0.00      1          0          0          0          0          0          0          0          0          0
  knapsack         :       0.00       0.00     20          0          0          0          0          0          0          0          0         44
  setppc           :       0.00       0.00     20         83          3          0          0          0          3          0          3          3
  linear           :       0.00       0.00     13          0          0          0          0          0          0          0          0          0
  logicor          :       0.00       0.00      0          0          0          0          0          0          0          0          0          0
  benders          :       0.00       0.00      0          0          0          0          0          0          0          0          0          0
  components       :       0.00       0.00      1          0          0          0          0          0          0          0          0          0
  root node        :          -          -      -       2259          -          -       2259          -          -          -          -          -
Constraints        :     Number  MaxNumber  #Separate #Propagate    #EnfoLP    #EnfoRelax  #EnfoPS    #Check   #ResProp    Cutoffs    DomReds       Cuts    Applied      Conss   Children
  benderslp        :          0          0          0          0          2          0          0         29          0          0          0          0          0          0          0
  integral         :          0          0          0          0          2          0          0         29          0          1          0          0          0          2          0
  knapsack         :          1          1         18       1116          0          0          0         24         91          0          0         11          2          0          0
  setppc           :        141+       142         18       1319          0          0          0         19       1858         41          0          0          0          0          0
  linear           :          1          1         18       1216          0          0          0          2         97          0          0          0          0          0          0
  logicor          :          0+       221         18        130          0          0          0          0          0          1          0          0          0          0          0
  benders          :          0          0          0          0          0          0          0          3          0          0          0          0          0          0          0
  countsols        :          0          0          0          0          0          0          0          3          0          0          0          0          0          0          0
  components       :          0          0          0          0          0          0          0          0          0          0          0          0          0          0          0
Constraint Timings :  TotalTime  SetupTime   Separate  Propagate     EnfoLP     EnfoPS     EnfoRelax   Check    ResProp    SB-Prop
  benderslp        :       0.00       0.00       0.00       0.00       0.00       0.00       0.00       0.00       0.00       0.00
  integral         :       0.06       0.00       0.00       0.00       0.06       0.00       0.00       0.00       0.00       0.00
  knapsack         :       0.00       0.00       0.00       0.00       0.00       0.00       0.00       0.00       0.00       0.00
  setppc           :       0.01       0.00       0.00       0.00       0.00       0.00       0.00       0.01       0.00       0.00
  linear           :       0.03       0.00       0.02       0.01       0.00       0.00       0.00       0.00       0.00       0.00
  logicor          :       0.00       0.00       0.00       0.00       0.00       0.00       0.00       0.00       0.00       0.00
  benders          :       0.00       0.00       0.00       0.00       0.00       0.00       0.00       0.00       0.00       0.00
  countsols        :       0.00       0.00       0.00       0.00       0.00       0.00       0.00       0.00       0.00       0.00
  components       :       0.00       0.00       0.00       0.00       0.00       0.00       0.00       0.00       0.00       0.00
Propagators        : #Propagate   #ResProp    Cutoffs    DomReds
  dualfix          :          6          0          0          0
  genvbounds       :          0          0          0          0
  nlobbt           :          0          0          0          0
  obbt             :          0          0          0          0
  orbitalfixing    :          0          0          0          0
  probing          :          0          0          0          0
  pseudoobj        :         40          0          0          0
  redcost          :         29          0          0       2197
  rootredcost      :          0          0          0          0
  vbounds          :       1222          0          0          0
Propagator Timings :  TotalTime  SetupTime   Presolve  Propagate    ResProp    SB-Prop
  dualfix          :       0.01       0.00       0.01       0.00       0.00       0.00
  genvbounds       :       0.00       0.00       0.00       0.00       0.00       0.00
  nlobbt           :       0.00       0.00       0.00       0.00       0.00       0.00
  obbt             :       0.00       0.00       0.00       0.00       0.00       0.00
  orbitalfixing    :       0.00       0.00       0.00       0.00       0.00       0.00
  probing          :       0.01       0.00       0.01       0.00       0.00       0.00
  pseudoobj        :       0.00       0.00       0.00       0.00       0.00       0.00
  redcost          :       0.00       0.00       0.00       0.00       0.00       0.00
  rootredcost      :       0.01       0.00       0.00       0.01       0.00       0.00
  vbounds          :       0.00       0.00       0.00       0.00       0.00       0.00
Conflict Analysis  :       Time      Calls    Success    DomReds  Conflicts   Literals    Reconvs ReconvLits   Dualrays   Nonzeros   LP Iters   (pool size: [10000,10000])
  propagation      :       0.00         38         38          -        335       39.4          0        0.0          -          -          -
  infeasible LP    :       0.00          3         11          -         16       32.9          0        0.0          9      159.6          0
  bound exceed. LP :       0.00          3          3          -          5        3.0          0        0.0          0        0.0         40
  strong branching :       0.00          0          0          -          0        0.0          0        0.0          -          -          0
  pseudo solution  :       0.00          0          0          -          0        0.0          0        0.0          -          -          -
  applied globally :       0.00          -          -          8        228       25.8          -          -          9          -          -
  applied locally  :          -          -          -          0          0        0.0          -          -          0          -          -
Separators         :   ExecTime  SetupTime      Calls    Cutoffs    DomReds       Cuts    Applied      Conss
  cut pool         :       0.00                    36          -          -         38          -          -    (maximal pool size: 41)
  aggregation      :       0.03       0.00         18          0          0          0          0          0
  cgmip            :       0.00       0.00          0          0          0          0          0          0
  clique           :       0.01       0.00         18          0          0          0          2          0
  closecuts        :       0.00       0.00          0          0          0          0          0          0
  cmir             :       0.00       0.00          0          0          0          0          0          0
  convexproj       :       0.00       0.00          0          0          0          0          0          0
  disjunctive      :       0.00       0.00          0          0          0          0          0          0
  eccuts           :       0.00       0.00          0          0          0          0          0          0
  flowcover        :       0.00       0.00          0          0          0          0          3          0
  gauge            :       0.00       0.00          0          0          0          0          0          0
  gomory           :       0.00       0.00         10          0          0          0          0          0
  impliedbounds    :       0.00       0.00         18          0         35          0          0          0
  intobj           :       0.00       0.00          0          0          0          0          0          0
  mcf              :       0.00       0.00          1          0          0          0          0          0
  oddcycle         :       0.00       0.00          0          0          0          0          0          0
  rapidlearning    :       0.00       0.00          0          0          0          0          0          0
  strongcg         :       0.02       0.00         18          0          0          0          0          0
  zerohalf         :       0.02       0.00         18          0          0          0         24          0
Pricers            :   ExecTime  SetupTime      Calls       Vars
  problem variables:       0.00          -          0          0
Branching Rules    :   ExecTime  SetupTime   BranchLP  BranchExt   BranchPS    Cutoffs    DomReds       Cuts      Conss   Children
  allfullstrong    :       0.00       0.00          0          0          0          0          0          0          0          0
  cloud            :       0.00       0.00          0          0          0          0          0          0          0          0
  distribution     :       0.00       0.00          0          0          0          0          0          0          0          0
  fullstrong       :       0.00       0.00          0          0          0          0          0          0          0          0
  inference        :       0.00       0.00          0          0          0          0          0          0          0          0
  leastinf         :       0.00       0.00          0          0          0          0          0          0          0          0
  lookahead        :       0.00       0.00          0          0          0          0          0          0          0          0
  mostinf          :       0.00       0.00          0          0          0          0          0          0          0          0
  multaggr         :       0.00       0.00          0          0          0          0          0          0          0          0
  nodereopt        :       0.00       0.00          0          0          0          0          0          0          0          0
  pscost           :       0.00       0.00          0          0          0          0          0          0          0          0
  random           :       0.00       0.00          0          0          0          0          0          0          0          0
  relpscost        :       0.06       0.00          2          0          0          1          0          0          2          0
Primal Heuristics  :   ExecTime  SetupTime      Calls      Found       Best
  LP solutions     :       0.00          -          -          0          0
  relax solutions  :       0.00          -          -          0          0
  pseudo solutions :       0.00          -          -          0          0
  strong branching :       0.00          -          -          0          0
  actconsdiving    :       0.00       0.00          0          0          0
  alns             :       0.01       0.00          1          0          0
  bound            :       0.00       0.00          0          0          0
  clique           :       0.00       0.00          1          0          0
  coefdiving       :       0.00       0.00          0          0          0
  completesol      :       0.00       0.00          0          0          0
  conflictdiving   :       0.00       0.00          0          0          0
  crossover        :       0.00       0.00          0          0          0
  dins             :       0.00       0.00          0          0          0
  distributiondivin:       0.00       0.00          0          0          0
  dualval          :       0.00       0.00          0          0          0
  farkasdiving     :       0.01       0.00          1          1          1
  feaspump         :       0.01       0.00          1          1          1
  fixandinfer      :       0.00       0.00          0          0          0
  fracdiving       :       0.00       0.00          0          0          0
  gins             :       0.00       0.00          0          0          0
  guideddiving     :       0.00       0.00          0          0          0
  indicator        :       0.00       0.00          0          0          0
  intdiving        :       0.00       0.00          0          0          0
  intshifting      :       0.00       0.00          0          0          0
  linesearchdiving :       0.00       0.00          0          0          0
  localbranching   :       0.00       0.00          0          0          0
  locks            :       0.01       0.00          1          0          0
  lpface           :       0.00       0.00          0          0          0
  mpec             :       0.00       0.00          0          0          0
  multistart       :       0.00       0.00          0          0          0
  mutation         :       0.00       0.00          0          0          0
  nlpdiving        :       0.00       0.00          0          0          0
  objpscostdiving  :       0.00       0.00          0          0          0
  octane           :       0.00       0.00          0          0          0
  ofins            :       0.00       0.00          0          0          0
  oneopt           :       0.00       0.00          2          0          0
  proximity        :       0.00       0.00          0          0          0
  pscostdiving     :       0.00       0.00          0          0          0
  randrounding     :       0.03       0.00         20          0          0
  rens             :       0.01       0.00          1          0          0
  reoptsols        :       0.00       0.00          0          0          0
  repair           :       0.00       0.00          0          0          0
  rins             :       0.00       0.00          0          0          0
  rootsoldiving    :       0.00       0.00          0          0          0
  rounding         :       0.00       0.00         20          0          0
  shiftandpropagate:       0.00       0.00          1          0          0
  shifting         :       0.00       0.00         20          0          0
  simplerounding   :       0.00       0.00          0          0          0
  subnlp           :       0.00       0.00          0          0          0
  trivial          :       0.00       0.00          2          0          0
  trivialnegation  :       0.00       0.00          0          0          0
  trysol           :       0.00       0.00          0          0          0
  twoopt           :       0.00       0.00          0          0          0
  undercover       :       0.00       0.00          0          0          0
  vbounds          :       0.01       0.00          1          0          0
  veclendiving     :       0.00       0.00          0          0          0
  zeroobj          :       0.00       0.00          0          0          0
  zirounding       :       0.00       0.00          1          0          0
  other solutions  :          -          -          -          0          -
Diving Statistics  :      Calls      Nodes   LP Iters Backtracks  Conflicts   MinDepth   MaxDepth   AvgDepth  RoundSols  NLeafSols  MinSolDpt  MaxSolDpt  AvgSolDpt
  actconsdiving    :          0          -          -          -          -          -          -          -          -          -          -          -          -
  coefdiving       :          0          -          -          -          -          -          -          -          -          -          -          -          -
  conflictdiving   :          0          -          -          -          -          -          -          -          -          -          -          -          -
  distributiondivin:          0          -          -          -          -          -          -          -          -          -          -          -          -
  farkasdiving     :          1         10         61          0          0         11         11       11.0          0          1         11         11       11.0
  fracdiving       :          0          -          -          -          -          -          -          -          -          -          -          -          -
  guideddiving     :          0          -          -          -          -          -          -          -          -          -          -          -          -
  linesearchdiving :          0          -          -          -          -          -          -          -          -          -          -          -          -
  pscostdiving     :          0          -          -          -          -          -          -          -          -          -          -          -          -
  veclendiving     :          0          -          -          -          -          -          -          -          -          -          -          -          -
Neighborhoods      :      Calls  SetupTime  SolveTime SolveNodes       Sols       Best       Exp3  EpsGreedy        UCB TgtFixRate  Opt  Inf Node Stal  Sol  Usr Othr Actv
  rens             :          0       0.00       0.00          0          0          0    0.00000   -1.00000    1.00000      0.900    0    0    0    0    0    0    0    1
  rins             :          0       0.00       0.00          0          0          0    0.00000   -1.00000    1.00000      0.900    0    0    0    0    0    0    0    1
  mutation         :          0       0.00       0.00          0          0          0    0.00000   -1.00000    1.00000      0.900    0    0    0    0    0    0    0    1
  localbranching   :          0       0.00       0.00          0          0          0    0.00000   -1.00000    1.00000      0.900    0    0    0    0    0    0    0    1
  crossover        :          1       0.01       0.00          0          0          0    0.00000   -1.00000    1.00000      0.700    0    1    0    0    0    0    0    1
  proximity        :          0       0.00       0.00          0          0          0    0.00000   -1.00000    1.00000      0.900    0    0    0    0    0    0    0    1
  zeroobjective    :          0       0.00       0.00          0          0          0    0.00000   -1.00000    1.00000      0.900    0    0    0    0    0    0    0    1
  dins             :          0       0.00       0.00          0          0          0    0.00000   -1.00000    1.00000      0.900    0    0    0    0    0    0    0    1
LP                 :       Time      Calls Iterations  Iter/call   Iter/sec  Time-0-It Calls-0-It    ItLimit
  primal LP        :       0.00          1          0       0.00          -       0.00          1
  dual LP          :       0.02         25        772      42.89   38600.00       0.00          7
  lex dual LP      :       0.00          0          0       0.00          -
  barrier LP       :       0.00          0          0       0.00          -       0.00          0
  resolve instable :       0.00          0          0       0.00          -
  diving/probing LP:       0.03         16        495      30.94   16500.00
  strong branching :       0.05         38       1024      26.95   20480.00          -          -          0
    (at root node) :          -         38       1024      26.95          -
  conflict analysis:       0.00          5         40       8.00          -
B&B Tree           :
  number of runs   :          1
  nodes            :          1 (0 internal, 1 leaves)
  feasible leaves  :          0
  infeas. leaves   :          1
  objective leaves :          0
  nodes (total)    :          1 (0 internal, 1 leaves)
  nodes left       :          0
  max depth        :          0
  max depth (total):          0
  backtracks       :          0 (0.0%)
  early backtracks :          0 (0.0%)
  nodes exc. ref.  :          0 (0.0%)
  delayed cutoffs  :          0
  repropagations   :          0 (0 domain reductions, 0 cutoffs)
  avg switch length:       2.00
  switching time   :       0.00
Root Node          :
  First LP value   : +6.53208333333333e+03
  First LP Iters   :        667 (33350.00 Iter/sec)
  First LP Time    :       0.02
  Final Dual Bound : +6.54800000000000e+03
  Final Root Iters :       1160
  Root LP Estimate :                     -
Solution           :
  Solutions found  :          2 (2 improvements)
  First Solution   : +6.87700000000000e+03   (in run 1, after 1 nodes, 0.13 seconds, depth 0, found by <feaspump>)
  Gap First Sol.   :       5.28 %
  Gap Last Sol.    :       0.15 %
  Primal Bound     : +6.54800000000000e+03   (in run 1, after 1 nodes, 0.28 seconds, depth 11, found by <farkasdiving>)
  Dual Bound       : +6.54800000000000e+03
  Gap              :       0.00 %
  Avg. Gap         :      37.18 % (13.76 primal-dual integral)
  Tree Data        : 1 nodes (1 visited, 0 inner, 1 leaves, 0 open), progress: 1.0000
Tree Estimation    :       estim       value       trend  resolution      smooth
  wbe              :           1           -           -           -           -
  tree profile     :          -1           -           -           -           -
  gap              :           1     1.00000     1.00000           1           1
  progress         :           1     1.00000     1.00000           1           1
  leaf-frequency   :           1     0.50000     1.00000           1           1
  ssg              :           1     0.00000    -1.00000           1           1
  open-nodes       :           1     0.00000     0.00000           1           1


SCIP> checksol

check best solution
solution is feasible in original problem
Violation          :    absolute    relative
  bounds           : 0.00000e+00 0.00000e+00
  integrality      : 0.00000e+00           -
  LP rows          : 0.00000e+00 0.00000e+00
  constraints      : 0.00000e+00 0.00000e+00

SCIP> write sol /local/tmp/bzfhende-tmpdir/bzfhende.MMMc.101_mod010.scip.M640.enaable_treeprofile.sol

written solution information to file </local/tmp/bzfhende-tmpdir/bzfhende.MMMc.101_mod010.scip.M640.enable_treeprofile.sol>

SCIP> quit

Disabling tree profile data collection
Read MPS: 1
MIP has 2655 vars and 146 constraints
Read SOL: 1
Objective value computed by solver: 6548

Integrality tolerance: 1/10000
Linear tolerance: 1/10000
Objective tolerance: 1/10000

Check SOL: Integrality 1 Constraints 1 Objective 1
Maximum violations: Integrality 0 Constraints 0 Objective 0
@04 1566500909
-----------------------------
Do 22. Aug 21:08:29 CEST 2019
-----------------------------

=ready=
